# Solution for model ComputeNE_MIP
# Objective value = 8
sigma_0_0 0
sigma_0_1 0
sigma_0_2 1
sigma_1_0 0
sigma_1_1 1
sigma_2_0 0
sigma_2_1 0
sigma_2_2 1
sigma_3_0 0
sigma_3_1 0
sigma_3_2 1
sigma_4_0 0
sigma_4_1 1
sigma_5_0 0
sigma_5_1 1
sigma_5_2 0
sigma_6_0 0
sigma_6_1 0
sigma_6_2 1
sigma_7_0 0
sigma_7_1 1
activ_0_0 0
activ_0_1 0
activ_0_2 1
activ_1_0 0
activ_1_1 1
activ_2_0 0
activ_2_1 0
activ_2_2 1
activ_3_0 0
activ_3_1 0
activ_3_2 1
activ_4_0 0
activ_4_1 1
activ_5_0 0
activ_5_1 1
activ_5_2 0
activ_6_0 0
activ_6_1 0
activ_6_2 1
activ_7_0 0
activ_7_1 1
v_0 1.7677290248312918e+03
v_1 -1.4508344548527617e+01
v_2 8.3706244064170266e+02
v_3 3.0644369453961724e+02
v_4 -1.2612570882650914e+01
v_5 6.6709998091022283e+02
v_6 1.5377614968445232e+03
v_7 1.3427870062645991e+03
ArtP_R0 0
ArtN_R0 0
ArtP_R1 0
ArtN_R1 0
ArtP_R2 0
ArtN_R2 0
ArtP_R3 0
ArtN_R3 0
ArtP_R4 0
ArtN_R4 0
ArtP_R5 0
ArtN_R5 0
ArtP_R6 0
ArtN_R6 0
ArtP_R7 0
ArtN_R7 0
ArtN_R8 0
ArtP_R9 0
ArtN_R10 0
ArtN_R11 0
ArtP_R12 0
ArtN_R13 0
ArtN_R14 0
ArtP_R15 0
ArtN_R16 0
ArtN_R17 0
ArtP_R18 0
ArtN_R19 0
ArtN_R20 0
ArtP_R21 0
ArtN_R22 0
ArtN_R23 0
ArtP_R24 0
ArtN_R25 0
ArtN_R26 0
ArtP_R27 0
ArtN_R28 0
ArtN_R29 0
ArtP_R30 0
ArtN_R31 0
ArtN_R32 0
ArtP_R33 0
ArtN_R34 0
ArtN_R35 0
ArtP_R36 0
ArtN_R37 0
ArtN_R38 0
ArtP_R39 0
ArtN_R40 0
ArtN_R41 0
ArtP_R42 0
ArtN_R43 0
ArtN_R44 0
ArtP_R45 0
ArtN_R46 0
ArtN_R47 0
ArtP_R48 0
ArtN_R49 0
ArtN_R50 0
ArtP_R51 0
ArtN_R52 0
ArtN_R53 0
ArtP_R54 0
ArtN_R55 0
ArtN_R56 0
ArtP_R57 0
ArtN_R58 0
ArtN_R59 0
ArtP_R60 0
ArtN_R61 0
ArtN_R62 0
ArtP_R63 0
ArtN_R64 0
ArtN_R65 0
ArtP_R66 0
ArtN_R67 0
ArtN_R68 0
ArtP_R69 0
ArtN_R70 0
